49910 45 55081 248181 54482 1
49920 39 47737 215358 55244 0.96
49468 57 69769 313662 55582 1
49458 52 63649 285557 55980 0.92
49890 65 79561 358612 54774 0.98
49340 48 58753 263564 56502 0.94
49904 47 57529 261589 55472 0.88
49206 50 61201 274294 55802 0.94
49256 55 67321 307364 54844 1
49528 46 56305 252174 56092 0.9
